; benchmark generated from python API
(set-info :status unknown)
(declare-fun x_months () Int)
(declare-fun x_beta () Int)
(assert
 (<= (- 1202) x_months))
(assert
 (>= 1209 x_months))
(assert
 (let ((?x3244 (mod x_months 48)))
 (let ((?x18 ((as const (Array Int Int)) 0)))
 (let ((?x20 (store ?x18 0 31)))
 (let ((?x23 (store ?x20 1 30)))
 (let ((?x25 (store ?x23 2 31)))
 (let ((?x26 (store ?x25 3 30)))
 (let ((?x28 (store ?x26 4 31)))
 (let ((?x30 (store ?x28 5 31)))
 (let ((?x32 (store ?x30 6 30)))
 (let ((?x34 (store ?x32 7 31)))
 (let ((?x36 (store ?x34 8 30)))
 (let ((?x38 (store ?x36 9 31)))
 (let ((?x40 (store ?x38 10 31)))
 (let ((?x43 (store ?x40 11 28)))
 (let ((?x44 (store ?x43 12 31)))
 (let ((?x46 (store ?x44 13 30)))
 (let ((?x48 (store ?x46 14 31)))
 (let ((?x50 (store ?x48 15 30)))
 (let ((?x52 (store ?x50 16 31)))
 (let ((?x54 (store ?x52 17 31)))
 (let ((?x56 (store ?x54 18 30)))
 (let ((?x58 (store ?x56 19 31)))
 (let ((?x60 (store ?x58 20 30)))
 (let ((?x62 (store ?x60 21 31)))
 (let ((?x64 (store ?x62 22 31)))
 (let ((?x66 (store ?x64 23 28)))
 (let ((?x68 (store ?x66 24 31)))
 (let ((?x70 (store ?x68 25 30)))
 (let ((?x72 (store ?x70 26 31)))
 (let ((?x74 (store ?x72 27 30)))
 (let ((?x75 (store ?x74 28 31)))
 (let ((?x77 (store ?x75 29 31)))
 (let ((?x78 (store ?x77 30 30)))
 (let ((?x79 (store ?x78 31 31)))
 (let ((?x81 (store ?x79 32 30)))
 (let ((?x83 (store ?x81 33 31)))
 (let ((?x85 (store ?x83 34 31)))
 (let ((?x87 (store ?x85 35 28)))
 (let ((?x89 (store ?x87 36 31)))
 (let ((?x91 (store ?x89 37 30)))
 (let ((?x93 (store ?x91 38 31)))
 (let ((?x95 (store ?x93 39 30)))
 (let ((?x97 (store ?x95 40 31)))
 (let ((?x99 (store ?x97 41 31)))
 (let ((?x101 (store ?x99 42 30)))
 (let ((?x103 (store ?x101 43 31)))
 (let ((?x105 (store ?x103 44 30)))
 (let ((?x107 (store ?x105 45 31)))
 (let ((?x109 (store ?x107 46 31)))
 (let ((?x111 (store ?x109 47 29)))
 (let ((?x3499 (ite (or (= 22802 (+ x_months 24003)) (= 25202 (+ x_months 24003))) 28 (select ?x111 ?x3244))))
 (let (($x4418 (<= 0 x_beta)))
 (and $x4418 (< x_beta ?x3499)))))))))))))))))))))))))))))))))))))))))))))))))))))))
(assert
 (let (($x3873 (and (= x_months (- (+ (* 2022 12) 2) 24003)) (>= 27 x_beta))))
 (not (or (< x_months (- (+ (* 2022 12) 2) 24003)) $x3873))))
(assert
 (let (($x4418 (<= 0 x_beta)))
(let (($x1212 (or (> x_months (- (+ (* 2022 12) 3) 24003)) (and (= x_months (- (+ (* 2022 12) 3) 24003)) $x4418))))
(not $x1212))))
(check-sat)
